proyfinal/src/viki/013/andrea/andrea-localstore/experimentInOfficeAgust.take6/worker_3/0fd55142-acdd-4261-a9e0-9141dc2d1bb6.als.cnf.out
Reading from standard input... Use '--help' for help.
============================[ Problem Statistics ]=============================
|                                                                             |
|  Number of variables:         87638                                         |
|  Number of clauses:          161767                                         |
|  Parse time:                   0.04 s                                       |
|                                                                             |
============================[ Search Statistics ]==============================
| Conflicts |          ORIGINAL         |          LEARNT          | Progress |
|           |    Vars  Clauses Literals |    Limit  Clauses Lit/Cl |          |
===============================================================================
|       100 |   62569   105896   264625 |    38828      100      7 | 28.605 % |
|       250 |   62569   105896   264625 |    42711      250     33 | 28.605 % |
|       475 |   62569   105896   264625 |    46982      475     56 | 28.605 % |
|       812 |   62569   105896   264625 |    51680      812    103 | 28.605 % |
|      1318 |   62569   105896   264625 |    56848     1318     83 | 28.605 % |
|      2077 |   62568   105893   264619 |    62533     2076     82 | 28.606 % |
|      3216 |   62568   105893   264619 |    68787     3215     76 | 28.606 % |
|      4924 |   62511   105764   264334 |    75665     4711     68 | 28.672 % |
|      7486 |   62492   105688   264158 |    83232     7271     75 | 28.693 % |
===============================================================================
restarts              : 46
conflicts             : 11020          (6177 /sec)
decisions             : 32255          (0.00 % random) (18080 /sec)
propagations          : 16879512       (9461270 /sec)
conflict literals     : 822834         (56.63 % deleted)
Memory used           : 32.58 MB
CPU time              : 1.78406 s

UNSATISFIABLE
